60
1 0 4
2 0 9
2 1 8
3 0 1
3 1 7
3 2 10
4 0 7
4 1 10
4 2 8
4 3 4
5 0 1
5 1 2
5 2 4
5 3 6
5 4 8
6 0 9
6 1 6
6 2 7
6 3 2
6 4 8
6 5 8
7 0 7
7 1 9
7 2 5
7 3 8
7 4 8
7 5 5
7 6 2
8 0 2
8 1 1
8 2 5
8 3 6
8 4 3
8 5 9
8 6 3
8 7 6
9 0 3
9 1 1
9 2 10
9 3 5
9 4 4
9 5 5
9 6 9
9 7 1
9 8 5
10 0 2
10 1 8
10 2 5
10 3 6
10 4 3
10 5 10
10 6 6
10 7 4
10 8 10
10 9 10
11 0 6
11 1 3
11 2 10
11 3 5
11 4 6
11 5 9
11 6 4
11 7 7
11 8 7
11 9 6
11 10 9
12 0 3
12 1 6
12 2 5
12 3 9
12 4 1
12 5 2
12 6 2
12 7 4
12 8 10
12 9 6
12 10 4
12 11 6
13 0 10
13 1 10
13 2 1
13 3 2
13 4 2
13 5 3
13 6 7
13 7 9
13 8 6
13 9 8
13 10 9
13 11 6
13 12 1
14 0 8
14 1 2
14 2 7
14 3 1
14 4 2
14 5 2
14 6 5
14 7 2
14 8 5
14 9 9
14 10 4
14 11 5
14 12 2
14 13 10
15 0 4
15 1 9
15 2 8
15 3 6
15 4 1
15 5 8
15 6 5
15 7 6
15 8 8
15 9 4
15 10 7
15 11 1
15 12 10
15 13 8
15 14 8
16 0 8
16 1 1
16 2 1
16 3 2
16 4 8
16 5 6
16 6 3
16 7 9
16 8 6
16 9 10
16 10 7
16 11 4
16 12 1
16 13 6
16 14 2
16 15 5
17 0 3
17 1 9
17 2 5
17 3 5
17 4 7
17 5 10
17 6 8
17 7 2
17 8 1
17 9 4
17 10 7
17 11 8
17 12 5
17 13 2
17 14 2
17 15 5
17 16 3
18 0 3
18 1 1
18 2 3
18 3 5
18 4 8
18 5 8
18 6 10
18 7 8
18 8 8
18 9 9
18 10 5
18 11 5
18 12 5
18 13 6
18 14 5
18 15 7
18 16 1
18 17 6
19 0 10
19 1 4
19 2 7
19 3 6
19 4 10
19 5 8
19 6 5
19 7 3
19 8 1
19 9 3
19 10 4
19 11 4
19 12 5
19 13 6
19 14 5
19 15 6
19 16 5
19 17 7
19 18 9
20 0 7
20 1 8
20 2 3
20 3 9
20 4 4
20 5 8
20 6 1
20 7 2
20 8 2
20 9 2
20 10 5
20 11 3
20 12 3
20 13 1
20 14 7
20 15 6
20 16 8
20 17 6
20 18 8
20 19 9
21 0 5
21 1 10
21 2 4
21 3 2
21 4 1
21 5 8
21 6 2
21 7 1
21 8 8
21 9 1
21 10 7
21 11 4
21 12 9
21 13 1
21 14 5
21 15 5
21 16 2
21 17 6
21 18 6
21 19 7
21 20 3
22 0 8
22 1 6
22 2 3
22 3 1
22 4 1
22 5 2
22 6 8
22 7 8
22 8 3
22 9 4
22 10 6
22 11 7
22 12 4
22 13 9
22 14 3
22 15 6
22 16 10
22 17 10
22 18 9
22 19 4
22 20 6
22 21 4
23 0 6
23 1 5
23 2 5
23 3 5
23 4 10
23 5 2
23 6 2
23 7 2
23 8 6
23 9 5
23 10 2
23 11 4
23 12 7
23 13 7
23 14 5
23 15 7
23 16 4
23 17 4
23 18 8
23 19 7
23 20 10
23 21 10
23 22 9
24 0 10
24 1 10
24 2 6
24 3 4
24 4 1
24 5 7
24 6 6
24 7 8
24 8 3
24 9 6
24 10 3
24 11 6
24 12 1
24 13 7
24 14 8
24 15 10
24 16 5
24 17 4
24 18 2
24 19 10
24 20 9
24 21 3
24 22 3
24 23 8
25 0 5
25 1 9
25 2 6
25 3 4
25 4 6
25 5 9
25 6 5
25 7 1
25 8 3
25 9 1
25 10 9
25 11 1
25 12 9
25 13 3
25 14 1
25 15 4
25 16 2
25 17 1
25 18 3
25 19 10
25 20 5
25 21 2
25 22 10
25 23 10
25 24 3
26 0 10
26 1 3
26 2 3
26 3 2
26 4 10
26 5 9
26 6 1
26 7 8
26 8 4
26 9 5
26 10 7
26 11 8
26 12 7
26 13 8
26 14 6
26 15 2
26 16 3
26 17 6
26 18 8
26 19 6
26 20 3
26 21 9
26 22 5
26 23 7
26 24 1
26 25 9
27 0 10
27 1 5
27 2 6
27 3 1
27 4 4
27 5 8
27 6 9
27 7 7
27 8 1
27 9 1
27 10 3
27 11 8
27 12 10
27 13 1
27 14 7
27 15 9
27 16 4
27 17 6
27 18 2
27 19 4
27 20 4
27 21 1
27 22 4
27 23 7
27 24 4
27 25 7
27 26 3
28 0 2
28 1 9
28 2 1
28 3 3
28 4 4
28 5 7
28 6 9
28 7 2
28 8 8
28 9 7
28 10 2
28 11 9
28 12 8
28 13 3
28 14 2
28 15 5
28 16 10
28 17 2
28 18 7
28 19 7
28 20 7
28 21 7
28 22 9
28 23 2
28 24 1
28 25 6
28 26 2
28 27 6
29 0 2
29 1 5
29 2 4
29 3 5
29 4 3
29 5 5
29 6 4
29 7 7
29 8 5
29 9 6
29 10 1
29 11 4
29 12 1
29 13 3
29 14 9
29 15 2
29 16 1
29 17 6
29 18 5
29 19 9
29 20 4
29 21 4
29 22 10
29 23 8
29 24 3
29 25 4
29 26 9
29 27 8
29 28 2
30 0 4
30 1 5
30 2 6
30 3 10
30 4 9
30 5 7
30 6 8
30 7 5
30 8 6
30 9 3
30 10 3
30 11 3
30 12 1
30 13 5
30 14 10
30 15 10
30 16 8
30 17 1
30 18 2
30 19 4
30 20 6
30 21 6
30 22 10
30 23 7
30 24 8
30 25 8
30 26 3
30 27 1
30 28 7
30 29 2
31 0 2
31 1 5
31 2 7
31 3 6
31 4 1
31 5 7
31 6 4
31 7 4
31 8 6
31 9 2
31 10 7
31 11 8
31 12 5
31 13 6
31 14 5
31 15 5
31 16 6
31 17 5
31 18 5
31 19 8
31 20 5
31 21 9
31 22 3
31 23 4
31 24 8
31 25 2
31 26 2
31 27 2
31 28 1
31 29 7
31 30 3
32 0 6
32 1 5
32 2 7
32 3 7
32 4 7
32 5 9
32 6 6
32 7 2
32 8 9
32 9 6
32 10 5
32 11 4
32 12 6
32 13 6
32 14 1
32 15 9
32 16 4
32 17 6
32 18 9
32 19 7
32 20 10
32 21 6
32 22 2
32 23 5
32 24 4
32 25 10
32 26 8
32 27 3
32 28 4
32 29 5
32 30 6
32 31 1
33 0 3
33 1 6
33 2 10
33 3 10
33 4 4
33 5 7
33 6 6
33 7 3
33 8 8
33 9 10
33 10 4
33 11 3
33 12 3
33 13 9
33 14 7
33 15 4
33 16 6
33 17 6
33 18 9
33 19 3
33 20 10
33 21 9
33 22 5
33 23 3
33 24 9
33 25 4
33 26 7
33 27 7
33 28 3
33 29 2
33 30 1
33 31 2
33 32 2
34 0 3
34 1 4
34 2 10
34 3 6
34 4 1
34 5 10
34 6 7
34 7 6
34 8 3
34 9 3
34 10 7
34 11 2
34 12 7
34 13 9
34 14 3
34 15 10
34 16 4
34 17 2
34 18 9
34 19 1
34 20 8
34 21 7
34 22 2
34 23 6
34 24 8
34 25 6
34 26 9
34 27 3
34 28 4
34 29 5
34 30 6
34 31 5
34 32 9
34 33 2
35 0 6
35 1 7
35 2 7
35 3 7
35 4 1
35 5 7
35 6 1
35 7 5
35 8 10
35 9 3
35 10 8
35 11 4
35 12 8
35 13 4
35 14 9
35 15 2
35 16 7
35 17 8
35 18 2
35 19 1
35 20 1
35 21 1
35 22 5
35 23 5
35 24 2
35 25 9
35 26 2
35 27 7
35 28 8
35 29 10
35 30 6
35 31 10
35 32 5
35 33 1
35 34 5
36 0 7
36 1 10
36 2 1
36 3 9
36 4 5
36 5 1
36 6 9
36 7 9
36 8 5
36 9 3
36 10 10
36 11 4
36 12 8
36 13 10
36 14 9
36 15 1
36 16 10
36 17 7
36 18 1
36 19 5
36 20 5
36 21 4
36 22 1
36 23 2
36 24 1
36 25 6
36 26 6
36 27 7
36 28 8
36 29 2
36 30 3
36 31 4
36 32 2
36 33 7
36 34 6
36 35 3
37 0 2
37 1 6
37 2 1
37 3 2
37 4 8
37 5 8
37 6 7
37 7 5
37 8 4
37 9 10
37 10 7
37 11 5
37 12 5
37 13 3
37 14 8
37 15 10
37 16 8
37 17 2
37 18 9
37 19 7
37 20 7
37 21 1
37 22 5
37 23 2
37 24 9
37 25 2
37 26 8
37 27 6
37 28 6
37 29 7
37 30 3
37 31 9
37 32 2
37 33 7
37 34 9
37 35 4
37 36 9
38 0 3
38 1 5
38 2 3
38 3 7
38 4 6
38 5 7
38 6 2
38 7 5
38 8 9
38 9 6
38 10 8
38 11 6
38 12 3
38 13 2
38 14 4
38 15 9
38 16 7
38 17 9
38 18 3
38 19 4
38 20 6
38 21 1
38 22 7
38 23 3
38 24 2
38 25 10
38 26 9
38 27 6
38 28 8
38 29 10
38 30 4
38 31 10
38 32 3
38 33 9
38 34 10
38 35 9
38 36 2
38 37 3
39 0 3
39 1 8
39 2 3
39 3 2
39 4 4
39 5 10
39 6 4
39 7 3
39 8 1
39 9 6
39 10 9
39 11 1
39 12 3
39 13 6
39 14 1
39 15 4
39 16 8
39 17 6
39 18 6
39 19 7
39 20 2
39 21 1
39 22 10
39 23 9
39 24 9
39 25 8
39 26 9
39 27 5
39 28 3
39 29 2
39 30 1
39 31 10
39 32 3
39 33 5
39 34 3
39 35 10
39 36 3
39 37 7
39 38 8
40 0 8
40 1 2
40 2 4
40 3 1
40 4 3
40 5 8
40 6 6
40 7 10
40 8 5
40 9 10
40 10 6
40 11 7
40 12 7
40 13 4
40 14 3
40 15 2
40 16 4
40 17 2
40 18 2
40 19 8
40 20 3
40 21 5
40 22 9
40 23 8
40 24 3
40 25 6
40 26 6
40 27 3
40 28 8
40 29 10
40 30 6
40 31 6
40 32 4
40 33 10
40 34 8
40 35 9
40 36 5
40 37 4
40 38 6
40 39 8
41 0 1
41 1 9
41 2 3
41 3 4
41 4 4
41 5 4
41 6 7
41 7 8
41 8 10
41 9 1
41 10 8
41 11 10
41 12 8
41 13 3
41 14 6
41 15 3
41 16 5
41 17 10
41 18 3
41 19 5
41 20 8
41 21 10
41 22 7
41 23 5
41 24 5
41 25 1
41 26 5
41 27 5
41 28 2
41 29 4
41 30 9
41 31 6
41 32 2
41 33 7
41 34 1
41 35 6
41 36 4
41 37 8
41 38 5
41 39 1
41 40 4
42 0 4
42 1 1
42 2 7
42 3 9
42 4 10
42 5 4
42 6 6
42 7 5
42 8 10
42 9 2
42 10 3
42 11 5
42 12 8
42 13 9
42 14 7
42 15 9
42 16 8
42 17 10
42 18 10
42 19 10
42 20 3
42 21 1
42 22 6
42 23 2
42 24 8
42 25 10
42 26 2
42 27 3
42 28 4
42 29 8
42 30 4
42 31 8
42 32 6
42 33 2
42 34 4
42 35 1
42 36 8
42 37 6
42 38 6
42 39 9
42 40 2
42 41 1
43 0 7
43 1 6
43 2 3
43 3 1
43 4 9
43 5 9
43 6 5
43 7 8
43 8 10
43 9 6
43 10 10
43 11 8
43 12 1
43 13 10
43 14 5
43 15 6
43 16 1
43 17 4
43 18 9
43 19 1
43 20 9
43 21 3
43 22 3
43 23 7
43 24 8
43 25 7
43 26 6
43 27 9
43 28 3
43 29 9
43 30 10
43 31 2
43 32 2
43 33 7
43 34 5
43 35 10
43 36 9
43 37 4
43 38 3
43 39 10
43 40 8
43 41 3
43 42 2
44 0 4
44 1 7
44 2 7
44 3 7
44 4 9
44 5 8
44 6 8
44 7 6
44 8 8
44 9 6
44 10 5
44 11 6
44 12 6
44 13 5
44 14 6
44 15 10
44 16 10
44 17 7
44 18 10
44 19 5
44 20 4
44 21 2
44 22 7
44 23 5
44 24 2
44 25 10
44 26 2
44 27 10
44 28 6
44 29 10
44 30 8
44 31 3
44 32 5
44 33 5
44 34 6
44 35 1
44 36 7
44 37 5
44 38 7
44 39 7
44 40 3
44 41 9
44 42 4
44 43 5
45 0 6
45 1 10
45 2 2
45 3 8
45 4 7
45 5 9
45 6 2
45 7 2
45 8 8
45 9 6
45 10 2
45 11 5
45 12 7
45 13 4
45 14 9
45 15 10
45 16 7
45 17 9
45 18 1
45 19 9
45 20 9
45 21 10
45 22 7
45 23 8
45 24 6
45 25 3
45 26 2
45 27 10
45 28 7
45 29 3
45 30 5
45 31 3
45 32 1
45 33 7
45 34 6
45 35 5
45 36 7
45 37 3
45 38 8
45 39 6
45 40 3
45 41 10
45 42 7
45 43 4
45 44 2
46 0 5
46 1 5
46 2 1
46 3 6
46 4 7
46 5 10
46 6 1
46 7 6
46 8 10
46 9 5
46 10 7
46 11 9
46 12 5
46 13 7
46 14 6
46 15 2
46 16 2
46 17 8
46 18 8
46 19 2
46 20 7
46 21 10
46 22 8
46 23 8
46 24 8
46 25 9
46 26 1
46 27 8
46 28 2
46 29 2
46 30 1
46 31 9
46 32 5
46 33 7
46 34 8
46 35 2
46 36 10
46 37 9
46 38 2
46 39 6
46 40 2
46 41 9
46 42 6
46 43 10
46 44 9
46 45 3
47 0 1
47 1 2
47 2 10
47 3 10
47 4 4
47 5 9
47 6 6
47 7 8
47 8 7
47 9 1
47 10 1
47 11 2
47 12 8
47 13 4
47 14 8
47 15 6
47 16 10
47 17 2
47 18 7
47 19 4
47 20 5
47 21 4
47 22 4
47 23 6
47 24 9
47 25 10
47 26 9
47 27 8
47 28 1
47 29 10
47 30 5
47 31 10
47 32 8
47 33 1
47 34 9
47 35 6
47 36 5
47 37 1
47 38 8
47 39 1
47 40 3
47 41 8
47 42 1
47 43 8
47 44 9
47 45 2
47 46 2
48 0 2
48 1 3
48 2 9
48 3 9
48 4 1
48 5 2
48 6 7
48 7 6
48 8 4
48 9 6
48 10 7
48 11 8
48 12 8
48 13 7
48 14 3
48 15 8
48 16 6
48 17 6
48 18 4
48 19 6
48 20 5
48 21 8
48 22 8
48 23 10
48 24 3
48 25 6
48 26 4
48 27 7
48 28 3
48 29 8
48 30 8
48 31 3
48 32 8
48 33 5
48 34 10
48 35 7
48 36 4
48 37 8
48 38 1
48 39 1
48 40 8
48 41 10
48 42 4
48 43 1
48 44 10
48 45 1
48 46 3
48 47 2
49 0 3
49 1 8
49 2 2
49 3 8
49 4 10
49 5 10
49 6 6
49 7 3
49 8 6
49 9 8
49 10 1
49 11 4
49 12 6
49 13 9
49 14 9
49 15 9
49 16 3
49 17 6
49 18 4
49 19 2
49 20 9
49 21 4
49 22 4
49 23 3
49 24 4
49 25 6
49 26 3
49 27 1
49 28 10
49 29 9
49 30 6
49 31 2
49 32 1
49 33 2
49 34 9
49 35 3
49 36 9
49 37 8
49 38 9
49 39 1
49 40 3
49 41 7
49 42 2
49 43 8
49 44 4
49 45 8
49 46 9
49 47 1
49 48 2
50 0 2
50 1 1
50 2 10
50 3 5
50 4 8
50 5 5
50 6 2
50 7 2
50 8 7
50 9 5
50 10 4
50 11 9
50 12 9
50 13 9
50 14 3
50 15 3
50 16 7
50 17 10
50 18 7
50 19 1
50 20 10
50 21 8
50 22 7
50 23 2
50 24 1
50 25 7
50 26 9
50 27 2
50 28 5
50 29 1
50 30 3
50 31 9
50 32 7
50 33 1
50 34 2
50 35 9
50 36 9
50 37 8
50 38 5
50 39 7
50 40 4
50 41 3
50 42 10
50 43 8
50 44 3
50 45 8
50 46 8
50 47 7
50 48 5
50 49 1
51 0 7
51 1 7
51 2 9
51 3 7
51 4 9
51 5 4
51 6 2
51 7 4
51 8 3
51 9 9
51 10 3
51 11 10
51 12 3
51 13 10
51 14 9
51 15 2
51 16 10
51 17 7
51 18 2
51 19 9
51 20 5
51 21 8
51 22 2
51 23 7
51 24 3
51 25 5
51 26 3
51 27 7
51 28 7
51 29 2
51 30 9
51 31 9
51 32 5
51 33 9
51 34 6
51 35 8
51 36 3
51 37 6
51 38 1
51 39 4
51 40 10
51 41 5
51 42 8
51 43 4
51 44 3
51 45 8
51 46 5
51 47 5
51 48 9
51 49 1
51 50 10
52 0 4
52 1 8
52 2 10
52 3 3
52 4 7
52 5 3
52 6 4
52 7 8
52 8 5
52 9 7
52 10 9
52 11 1
52 12 9
52 13 10
52 14 9
52 15 10
52 16 1
52 17 1
52 18 3
52 19 10
52 20 8
52 21 7
52 22 10
52 23 3
52 24 6
52 25 3
52 26 10
52 27 4
52 28 3
52 29 5
52 30 5
52 31 9
52 32 3
52 33 4
52 34 5
52 35 3
52 36 8
52 37 2
52 38 3
52 39 1
52 40 3
52 41 1
52 42 10
52 43 4
52 44 4
52 45 7
52 46 6
52 47 3
52 48 5
52 49 8
52 50 1
52 51 7
53 0 6
53 1 1
53 2 9
53 3 7
53 4 10
53 5 5
53 6 3
53 7 1
53 8 10
53 9 4
53 10 1
53 11 3
53 12 1
53 13 5
53 14 1
53 15 2
53 16 4
53 17 5
53 18 7
53 19 10
53 20 2
53 21 8
53 22 8
53 23 8
53 24 6
53 25 5
53 26 9
53 27 1
53 28 4
53 29 3
53 30 2
53 31 3
53 32 6
53 33 10
53 34 3
53 35 2
53 36 8
53 37 9
53 38 10
53 39 10
53 40 7
53 41 1
53 42 2
53 43 7
53 44 4
53 45 5
53 46 4
53 47 1
53 48 1
53 49 10
53 50 2
53 51 6
53 52 10
54 0 7
54 1 1
54 2 8
54 3 1
54 4 8
54 5 1
54 6 6
54 7 8
54 8 1
54 9 9
54 10 1
54 11 5
54 12 6
54 13 2
54 14 4
54 15 8
54 16 5
54 17 1
54 18 1
54 19 6
54 20 10
54 21 2
54 22 1
54 23 5
54 24 9
54 25 10
54 26 3
54 27 3
54 28 1
54 29 7
54 30 3
54 31 9
54 32 4
54 33 1
54 34 10
54 35 2
54 36 1
54 37 5
54 38 10
54 39 3
54 40 4
54 41 5
54 42 3
54 43 3
54 44 9
54 45 5
54 46 10
54 47 2
54 48 10
54 49 7
54 50 10
54 51 3
54 52 1
54 53 9
55 0 6
55 1 4
55 2 1
55 3 3
55 4 1
55 5 2
55 6 7
55 7 2
55 8 7
55 9 2
55 10 5
55 11 1
55 12 10
55 13 7
55 14 2
55 15 5
55 16 6
55 17 4
55 18 5
55 19 8
55 20 4
55 21 8
55 22 8
55 23 9
55 24 7
55 25 9
55 26 7
55 27 1
55 28 8
55 29 3
55 30 1
55 31 2
55 32 3
55 33 6
55 34 4
55 35 5
55 36 9
55 37 9
55 38 10
55 39 10
55 40 4
55 41 5
55 42 6
55 43 4
55 44 4
55 45 4
55 46 9
55 47 1
55 48 10
55 49 6
55 50 4
55 51 10
55 52 6
55 53 2
55 54 2
56 0 2
56 1 7
56 2 10
56 3 3
56 4 9
56 5 10
56 6 7
56 7 3
56 8 3
56 9 6
56 10 3
56 11 9
56 12 4
56 13 10
56 14 2
56 15 6
56 16 10
56 17 1
56 18 5
56 19 5
56 20 5
56 21 6
56 22 7
56 23 2
56 24 7
56 25 5
56 26 9
56 27 10
56 28 6
56 29 10
56 30 1
56 31 5
56 32 3
56 33 6
56 34 1
56 35 3
56 36 9
56 37 5
56 38 8
56 39 3
56 40 2
56 41 3
56 42 6
56 43 3
56 44 6
56 45 2
56 46 2
56 47 2
56 48 2
56 49 2
56 50 7
56 51 9
56 52 7
56 53 6
56 54 1
56 55 7
57 0 6
57 1 5
57 2 9
57 3 7
57 4 6
57 5 5
57 6 2
57 7 8
57 8 2
57 9 2
57 10 6
57 11 2
57 12 1
57 13 10
57 14 5
57 15 1
57 16 10
57 17 6
57 18 5
57 19 9
57 20 7
57 21 1
57 22 7
57 23 5
57 24 3
57 25 1
57 26 8
57 27 1
57 28 2
57 29 4
57 30 1
57 31 10
57 32 6
57 33 9
57 34 7
57 35 5
57 36 8
57 37 4
57 38 5
57 39 7
57 40 10
57 41 8
57 42 5
57 43 1
57 44 3
57 45 9
57 46 9
57 47 2
57 48 4
57 49 10
57 50 6
57 51 7
57 52 2
57 53 1
57 54 8
57 55 3
57 56 8
58 0 7
58 1 9
58 2 4
58 3 8
58 4 1
58 5 2
58 6 4
58 7 3
58 8 6
58 9 8
58 10 7
58 11 5
58 12 7
58 13 1
58 14 4
58 15 5
58 16 5
58 17 4
58 18 1
58 19 7
58 20 10
58 21 1
58 22 8
58 23 1
58 24 9
58 25 2
58 26 9
58 27 5
58 28 9
58 29 7
58 30 2
58 31 5
58 32 7
58 33 2
58 34 5
58 35 2
58 36 9
58 37 7
58 38 8
58 39 2
58 40 8
58 41 2
58 42 3
58 43 6
58 44 9
58 45 10
58 46 3
58 47 4
58 48 9
58 49 1
58 50 3
58 51 7
58 52 6
58 53 6
58 54 6
58 55 1
58 56 9
58 57 1
59 0 10
59 1 5
59 2 5
59 3 2
59 4 6
59 5 9
59 6 1
59 7 1
59 8 9
59 9 2
59 10 6
59 11 8
59 12 5
59 13 9
59 14 3
59 15 7
59 16 2
59 17 3
59 18 9
59 19 1
59 20 1
59 21 10
59 22 2
59 23 8
59 24 10
59 25 1
59 26 4
59 27 6
59 28 1
59 29 5
59 30 4
59 31 3
59 32 8
59 33 8
59 34 4
59 35 7
59 36 8
59 37 10
59 38 6
59 39 1
59 40 2
59 41 5
59 42 1
59 43 4
59 44 4
59 45 4
59 46 2
59 47 6
59 48 8
59 49 2
59 50 5
59 51 2
59 52 6
59 53 4
59 54 7
59 55 9
59 56 3
59 57 8
59 58 1
